0000000000000000
0000000000000000
0000011110100000
0000011111110000
0000000001100000
0000000001100000
0000000001100000
0000000001100000
0000000001100000
0000000001100000
0000000001100000
0000000001100000
0000000001100000
0000000001100000
0000000000000000
0000000000000000
